
Starting CP-SAT solver v9.15.6755
Parameters: random_seed: 2026073532 max_time_in_seconds: 2500 log_search_progress: true cp_model_presolve: true linearization_level: 2 num_search_workers: 4 cp_model_probing_level: 2 symmetry_level: 2

Initial satisfaction model '': (model_fingerprint: 0x692bcf1e27bcfc85)
#Variables: 724 (598 primary variables)
  - 724 Booleans in [0,1]
#kBoolAnd: 110 (#enforced: 110) (#literals: 330)
#kBoolOr: 110 (#enforced: 110) (#literals: 220)
#kExactlyOne: 87 (#literals: 261)
#kLinear1: 42 (#enforced: 6)
#kLinear2: 336 (#enforced: 336) (#complex_domain: 110)
#kLinear3: 1'600 (#enforced: 6)
#kLinearN: 1'132 (#enforced: 243) (#terms: 9'111)

Starting presolve at 0.00s
  6.59e-04s  0.00e+00d  [DetectDominanceRelations] 
  8.76e-03s  0.00e+00d  [PresolveToFixPoint] #num_loops=3 #num_dual_strengthening=1 
  3.68e-05s  0.00e+00d  [ExtractEncodingFromLinear] #potential_supersets=88 
  3.18e-04s  0.00e+00d  [DetectDuplicateColumns] 
  1.06e-04s  0.00e+00d  [DetectDuplicateConstraints] #duplicates=14 
[Symmetry] Graph for symmetry has 4'813 nodes and 15'284 arcs.
[Symmetry] Symmetry computation done. time: 0.00132724 dtime: 0.00178884
[SAT presolve] num removable Booleans: 220 / 606
[SAT presolve] num trivial clauses: 0
[SAT presolve] [0s] clauses:2'663 literals:7'280 vars:500 one_side_vars:60 simple_definition:1 singleton_clauses:0
[SAT presolve] [0.000207538s] clauses:2'662 literals:7'273 vars:500 one_side_vars:60 simple_definition:1 singleton_clauses:0
[SAT presolve] [0.000548185s] clauses:2'418 literals:6'920 vars:387 one_side_vars:60 simple_definition:6 singleton_clauses:0
  1.28e-04s  0.00e+00d  [DetectDuplicateConstraintsWithDifferentEnforcements] 
  5.75e-03s  3.10e-03d  [Probe] #probed=1'256 #fixed_bools=10 #equiv=9 #new_binary_clauses=734 
  6.21e-04s  5.17e-04d  [MaxClique] Merged 636 constraints with 1'416 literals into 569 constraints with 1'304 literals
  8.50e-04s  0.00e+00d  [DetectDominanceRelations] 
  3.12e-03s  0.00e+00d  [PresolveToFixPoint] #num_loops=1 #num_dual_strengthening=1 
  1.16e-03s  0.00e+00d  [ProcessAtMostOneAndLinear] 
  1.21e-04s  0.00e+00d  [DetectDuplicateConstraints] #duplicates=4 
  9.07e-05s  0.00e+00d  [DetectDuplicateConstraintsWithDifferentEnforcements] 
  1.18e-03s  6.58e-05d  [DetectDominatedLinearConstraints] #relevant_constraints=819 #num_inclusions=350 #num_redundant=6 
  1.13e-04s  0.00e+00d  [DetectDifferentVariables] 
  7.94e-04s  9.05e-05d  [ProcessSetPPC] #relevant_constraints=3'157 #num_inclusions=284 
  2.88e-04s  3.53e-05d  [TransformClausesToExactlyOne] #num_amos=580 #num_clauses=1'784 #num_transformed=2 #num_checked=1'784 
  5.27e-05s  0.00e+00d  [DetectEncodedComplexDomains] 
  3.36e-05s  9.00e-08d  [FindAlmostIdenticalLinearConstraints] #num_tested_pairs=1 
  9.28e-04s  1.38e-03d  [FindBigAtMostOneAndLinearOverlap] 
  1.41e-03s  1.21e-03d  [FindBigVerticalLinearOverlap] #blocks=1 #saved_nz=34 
  3.92e-04s  6.91e-04d  [FindBigHorizontalLinearOverlap] #linears=452 
  3.31e-04s  2.79e-05d  [MergeClauses] #num_collisions=10 #num_merges=10 #num_saved_literals=26 
  8.27e-04s  0.00e+00d  [DetectDominanceRelations] 
  3.09e-03s  0.00e+00d  [PresolveToFixPoint] #num_loops=2 #num_dual_strengthening=1 
  8.48e-04s  0.00e+00d  [DetectDominanceRelations] 
  3.00e-03s  0.00e+00d  [PresolveToFixPoint] #num_loops=1 #num_dual_strengthening=1 
  1.30e-04s  0.00e+00d  [DetectDuplicateColumns] 
  9.26e-05s  0.00e+00d  [DetectDuplicateConstraints] 
[Symmetry] Graph for symmetry has 4'462 nodes and 13'927 arcs.
[Symmetry] Symmetry computation done. time: 0.00103471 dtime: 0.00138922
[SAT presolve] num removable Booleans: 104 / 474
[SAT presolve] num trivial clauses: 0
[SAT presolve] [0s] clauses:2'313 literals:6'648 vars:447 one_side_vars:130 simple_definition:23 singleton_clauses:0
[SAT presolve] [0.000237755s] clauses:2'313 literals:6'502 vars:447 one_side_vars:137 simple_definition:83 singleton_clauses:0
[SAT presolve] [0.000392144s] clauses:2'107 literals:6'044 vars:438 one_side_vars:178 simple_definition:54 singleton_clauses:0
  1.63e-04s  0.00e+00d  [DetectDuplicateConstraintsWithDifferentEnforcements] #without_enforcements=4 
  5.56e-03s  1.88e-03d  [Probe] #probed=1'246 #new_binary_clauses=475 
  3.90e-04s  2.53e-04d  [MaxClique] Merged 462 constraints with 1'024 literals into 451 constraints with 1'022 literals
  8.22e-04s  0.00e+00d  [DetectDominanceRelations] 
  3.00e-03s  0.00e+00d  [PresolveToFixPoint] #num_loops=1 #num_dual_strengthening=1 
  1.09e-03s  0.00e+00d  [ProcessAtMostOneAndLinear] 
  1.03e-04s  0.00e+00d  [DetectDuplicateConstraints] 
  9.45e-05s  0.00e+00d  [DetectDuplicateConstraintsWithDifferentEnforcements] 
  1.11e-03s  5.94e-05d  [DetectDominatedLinearConstraints] #relevant_constraints=815 #num_inclusions=300 #num_redundant=1 
  1.19e-04s  0.00e+00d  [DetectDifferentVariables] 
  7.14e-04s  7.52e-05d  [ProcessSetPPC] #relevant_constraints=3'001 #num_inclusions=98 
  2.61e-04s  3.21e-05d  [TransformClausesToExactlyOne] #num_amos=451 #num_clauses=1'686 #num_checked=1'686 
  5.87e-05s  0.00e+00d  [DetectEncodedComplexDomains] 
  3.94e-05s  0.00e+00d  [FindAlmostIdenticalLinearConstraints] 
  8.59e-04s  1.26e-03d  [FindBigAtMostOneAndLinearOverlap] 
  1.40e-03s  1.13e-03d  [FindBigVerticalLinearOverlap] #blocks=1 #saved_nz=40 
  3.75e-04s  6.47e-04d  [FindBigHorizontalLinearOverlap] #linears=453 
  3.28e-04s  2.59e-05d  [MergeClauses] #num_collisions=71 #num_merges=71 #num_saved_literals=184 
  8.47e-04s  0.00e+00d  [DetectDominanceRelations] 
  3.09e-03s  0.00e+00d  [PresolveToFixPoint] #num_loops=2 #num_dual_strengthening=1 
  8.20e-04s  0.00e+00d  [DetectDominanceRelations] 
  2.97e-03s  0.00e+00d  [PresolveToFixPoint] #num_loops=1 #num_dual_strengthening=1 
  1.33e-04s  0.00e+00d  [DetectDuplicateColumns] 
  9.44e-05s  0.00e+00d  [DetectDuplicateConstraints] 
[Symmetry] Graph for symmetry has 4'202 nodes and 12'944 arcs.
[Symmetry] Symmetry computation done. time: 0.000971076 dtime: 0.00127503
[SAT presolve] num removable Booleans: 95 / 465
[SAT presolve] num trivial clauses: 0
[SAT presolve] [0s] clauses:2'084 literals:5'982 vars:438 one_side_vars:179 simple_definition:54 singleton_clauses:0
[SAT presolve] [0.00019244s] clauses:2'084 literals:5'982 vars:438 one_side_vars:179 simple_definition:54 singleton_clauses:0
[SAT presolve] [0.000251661s] clauses:2'084 literals:5'982 vars:438 one_side_vars:179 simple_definition:54 singleton_clauses:0
  1.57e-04s  0.00e+00d  [DetectDuplicateConstraintsWithDifferentEnforcements] 
  5.36e-03s  1.86e-03d  [Probe] #probed=1'246 #new_binary_clauses=475 
  3.86e-04s  2.43e-04d  [MaxClique] 
  8.42e-04s  0.00e+00d  [DetectDominanceRelations] 
  3.01e-03s  0.00e+00d  [PresolveToFixPoint] #num_loops=1 #num_dual_strengthening=1 
  1.10e-03s  0.00e+00d  [ProcessAtMostOneAndLinear] 
  1.13e-04s  0.00e+00d  [DetectDuplicateConstraints] 
  1.02e-04s  0.00e+00d  [DetectDuplicateConstraintsWithDifferentEnforcements] 
  1.12e-03s  5.82e-05d  [DetectDominatedLinearConstraints] #relevant_constraints=816 #num_inclusions=291 #num_redundant=1 
  1.30e-04s  0.00e+00d  [DetectDifferentVariables] 
  7.14e-04s  7.20e-05d  [ProcessSetPPC] #relevant_constraints=2'998 #num_inclusions=82 
  2.80e-04s  3.21e-05d  [TransformClausesToExactlyOne] #num_amos=447 #num_clauses=1'686 #num_checked=1'686 
  6.67e-05s  0.00e+00d  [DetectEncodedComplexDomains] 
  4.66e-05s  2.60e-07d  [FindAlmostIdenticalLinearConstraints] #num_tested_pairs=3 
  8.13e-04s  1.15e-03d  [FindBigAtMostOneAndLinearOverlap] 
  1.30e-03s  1.04e-03d  [FindBigVerticalLinearOverlap] 
  3.70e-04s  6.20e-04d  [FindBigHorizontalLinearOverlap] #linears=453 
  3.70e-04s  2.59e-05d  [MergeClauses] #num_collisions=71 #num_merges=71 #num_saved_literals=184 
  8.51e-04s  0.00e+00d  [DetectDominanceRelations] 
  3.02e-03s  0.00e+00d  [PresolveToFixPoint] #num_loops=1 #num_dual_strengthening=1 
  3.03e-05s  0.00e+00d  [MergeNoOverlap] 
  3.11e-05s  0.00e+00d  [MergeNoOverlap2D] 

Presolve summary:
  - 34 affine relations were detected.
  - rule 'TODO dual: only one blocking constraint?' was applied 753 times.
  - rule 'TODO linear inclusion: superset is equality' was applied 107 times.
  - rule 'affine: new relation' was applied 34 times.
  - rule 'at_most_one: removed literals' was applied 57 times.
  - rule 'at_most_one: size one' was applied 56 times.
  - rule 'at_most_one: transformed into max clique' was applied 2 times.
  - rule 'bool_or: implications' was applied 85 times.
  - rule 'bool_or: only one literal' was applied 12 times.
  - rule 'bool_or: removed enforcement literal' was applied 557 times.
  - rule 'clauses: transformed into exactly one' was applied 2 times.
  - rule 'deductions: 673 stored' was applied 1 time.
  - rule 'duplicate: merged rhs of linear constraint' was applied 17 times.
  - rule 'duplicate: removed constraint' was applied 18 times.
  - rule 'duplicate: removed enforced constraint' was applied 4 times.
  - rule 'enforcement: false literal' was applied 47 times.
  - rule 'enforcement: true literal' was applied 16 times.
  - rule 'exactly_one: removed literals' was applied 27 times.
  - rule 'exactly_one: satisfied' was applied 13 times.
  - rule 'exactly_one: singleton' was applied 2 times.
  - rule 'exactly_one: size two' was applied 25 times.
  - rule 'exactly_one: x and not(x)' was applied 6 times.
  - rule 'incompatible linear: add implication' was applied 111 times.
  - rule 'linear + amo: empty after processing' was applied 5 times.
  - rule 'linear + amo: extracted enforcement literal' was applied 46 times.
  - rule 'linear + amo: trivial linear constraint' was applied 1 time.
  - rule 'linear inclusion: redundant containing constraint' was applied 2 times.
  - rule 'linear inclusion: redundant included constraint' was applied 3 times.
  - rule 'linear inclusion: sparsify superset' was applied 3 times.
  - rule 'linear matrix: common vertical rectangle' was applied 2 times.
  - rule 'linear1: x in domain' was applied 36 times.
  - rule 'linear2: convert ax + by != cte to clauses' was applied 260 times.
  - rule 'linear2: convert implied ax + by == cte to clauses' was applied 114 times.
  - rule 'linear2: implied ax + by = cte has only one solution' was applied 8 times.
  - rule 'linear: always true' was applied 413 times.
  - rule 'linear: coefficient strengthening by increasing it' was applied 2 times.
  - rule 'linear: empty' was applied 1 time.
  - rule 'linear: extracted at most one (max)' was applied 1 time.
  - rule 'linear: fixed or dup variables' was applied 879 times.
  - rule 'linear: negative clause' was applied 1'288 times.
  - rule 'linear: negative reified and' was applied 68 times.
  - rule 'linear: never in domain' was applied 5 times.
  - rule 'linear: positive at most one' was applied 40 times.
  - rule 'linear: positive equal one' was applied 1 time.
  - rule 'linear: reduced variable domains' was applied 3 times.
  - rule 'linear: remapped using affine relations' was applied 22 times.
  - rule 'presolve: 101 unused variables removed.' was applied 1 time.
  - rule 'presolve: iteration' was applied 3 times.
  - rule 'probing: bool_or reduced to implication' was applied 43 times.
  - rule 'probing: simplified clauses' was applied 16 times.
  - rule 'setppc: bool_or in at_most_one' was applied 10 times.
  - rule 'setppc: exactly_one included in linear' was applied 1 time.
  - rule 'setppc: reduced linear coefficients' was applied 1 time.
  - rule 'setppc: removed dominated constraints' was applied 76 times.

Presolved satisfaction model '': (model_fingerprint: 0x320dfbfe07095ac)
#Variables: 467 (402 primary variables)
  - 465 Booleans in [0,1]
  - 2 in [0,2]
#kAtMostOne: 49 (#literals: 198)
#kBoolAnd: 244 (#enforced: 244) (#literals: 642)
#kBoolAndClauses: 71 (#enforced: 71 #multi: 71) (#literals: 326)
#kBoolOr: 1'544 (#literals: 4'676)
#kExactlyOne: 49 (#literals: 196)
#kLinearN: 816 (#enforced: 118) (#terms: 5'675)
[Symmetry] Graph for symmetry has 3'943 nodes and 12'932 arcs.
[Symmetry] Symmetry computation done. time: 0.000803792 dtime: 0.00126064

Preloading model.
#Model   0.09s var:467/467 constraints:2773/2773

Starting search at 0.09s with 4 workers.
3 full problem subsolvers: [default_lp, max_lp, no_lp]
1 first solution subsolver: [fj]
2 interleaved subsolvers: [feasibility_pump, rins/rens]
2 helper subsolvers: [neighborhood_helper, synchronization_agent]

#Model  44.12s var:466/467 constraints:2755/2773
#Model 587.51s var:465/467 constraints:2753/2773
#Model 1956.41s var:464/467 constraints:2753/2773

Task timing                   n [     min,      max]      avg      dev     time         n [     min,      max]      avg      dev    dtime
        'default_lp':         1 [  41.67m,   41.67m]   41.67m   0.00ns   41.67m         2 [  2.08ms,   41.37m]   20.69m   20.69m   41.37m
  'feasibility_pump':     12405 [ 22.95us, 130.18ms]   1.52ms   1.19ms   18.80s     12402 [275.80us, 114.68ms] 287.21us   1.03ms    3.56s
                'fj':      8964 [ 43.99ms, 245.61ms] 138.38ms   9.45ms   20.67m      8964 [ 15.01ms, 100.13ms] 100.01ms 897.92us   14.94m
            'max_lp':         1 [  41.67m,   41.67m]   41.67m   0.00ns   41.67m         2 [ 95.52ms,   53.93m]   26.97m   26.97m   53.94m
             'no_lp':         1 [  41.64m,   41.64m]   41.64m   0.00ns   41.64m         2 [  1.68ms,    1.42h]   42.72m   42.72m    1.42h
         'rins/rens':     11226 [765.07us, 264.19ms] 110.51ms  41.47ms   20.68m     11219 [251.57us, 100.32ms]  68.02ms  37.30ms   12.72m

Search stats     Bools   Conflicts    Branches  Restarts  BacktrackToRoot   Backtrack     BoolPropag  IntegerPropag
  'default_lp':    465     225'183   8'928'953     1'378        1'317'009   1'849'931     80'739'397    102'308'600
      'max_lp':    465     115'719  11'246'174       610        1'641'814   2'121'091     99'967'379    133'315'226
       'no_lp':    465  22'366'415  30'105'510    77'618          590'114  22'787'823  1'869'879'505    450'419'802

SAT formula      Fixed  Equiv  Total  VarLeft  BinaryClauses  PermanentClauses  TemporaryClauses
  'default_lp':      3      3    465      459          2'174            42'357             6'024
      'max_lp':      3      3    465      459          2'172            42'133             5'629
       'no_lp':      3      3    465      459          2'174           129'493             7'450

SAT stats        ClassicMinim   LitRemoved  LitRemovedBinary   LitLearned  LitForgotten   Subsumed
  'default_lp':       189'974    2'335'279         1'105'727    6'694'000     4'467'083     80'944
      'max_lp':        98'051    1'280'664           523'338    2'897'423     1'845'616     37'566
       'no_lp':    20'235'263  366'514'624        92'057'848  534'812'692   418'351'382  6'339'608

Vivification       Clauses   Decisions  LitTrue  Subsumed  LitRemoved  DecisionReused  Conflicts
  'default_lp':  1'347'389   8'363'087        3    10'693     121'384         342'816      1'123
      'max_lp':  1'651'283  10'740'516        0    11'950     134'684         386'857      1'073
       'no_lp':    430'762   3'775'592        0    25'122     335'159         112'313      1'011

Clause deletion    at_true  l_and_not(l)  to_binary  sub_conflict  sub_extra  sub_decisions  sub_eager  sub_vivify  sub_probing  sub_inpro  blocked  eliminated   forgotten    promoted   conflicts
    'default_lp':      152             0          3        79'571        658          3'387      1'373      10'693          946     10'746        0           0     123'525     440'202     225'183
        'max_lp':      152             0          3        37'094        322          1'118        472      11'950          986      7'391        0           0      62'308     234'279     115'719
         'no_lp':      267             0          6     6'239'759     39'907        285'921     99'849      25'122        2'206    115'772        0           0  15'426'347  50'450'888  22'366'415

Lp stats         Component  Iterations  AddedCuts  OPTIMAL  DUAL_F.  DUAL_U.
  'default_lp':          1  30'435'209     92'124  327'645        0  187'093
      'max_lp':          1  14'670'579     76'133   41'701   98'261   37'842

Lp dimension        Final dimension of first component
  'default_lp':    346 rows, 327 columns, 9030 entries
      'max_lp':  1076 rows, 467 columns, 10687 entries

Lp debug         CutPropag  CutEqPropag   Adjust  Overflow        Bad  BadScaling
  'default_lp':          0            6  187'090         0  2'620'754           0
      'max_lp':          0           19   37'835         0  2'178'324           0

Lp pool          Constraints  Updates  Simplif  Merged  Shortened  Split  Strengthened       Cuts/Call
  'default_lp':        9'899   18'202    1'034       0      1'046    116             0  92'124/122'196
      'max_lp':       12'209   22'599      912       2        924    145         2'097  76'133/113'994

Lp Cut            default_lp  max_lp
          CG_FF:       1'511      79
           CG_K:         842       4
          CG_KL:         773       3
           CG_R:       1'627      44
          CG_RB:           3       1
         Clique:           -      96
             IB:           4       2
       MIR_1_FF:         707     802
        MIR_1_K:         110      43
       MIR_1_KL:         535      64
        MIR_1_R:         644     524
      MIR_1_RLT:           -   8'505
       MIR_2_FF:         571     782
        MIR_2_K:         123     133
       MIR_2_KL:         321     129
        MIR_2_R:         638     807
       MIR_3_FF:         266     184
        MIR_3_K:          35      25
       MIR_3_KL:         115      15
        MIR_3_R:         299     316
       MIR_3_RB:           1       1
      MIR_3_RBP:           1       5
       MIR_4_FF:          84      41
        MIR_4_K:          20       8
       MIR_4_KL:          45       6
        MIR_4_R:         179     266
       MIR_4_RB:           -       1
      MIR_4_RBP:           2       5
       MIR_5_FF:          19      14
        MIR_5_K:           4       2
       MIR_5_KL:           4       -
        MIR_5_R:         105     263
       MIR_5_RB:           1       -
      MIR_5_RBP:           3       3
       MIR_6_FF:           6      10
        MIR_6_K:           4       2
       MIR_6_KL:           3       -
        MIR_6_R:          77     311
      MIR_6_RBP:           1       6
   ZERO_HALF_FF:         553     426
    ZERO_HALF_K:          86       5
   ZERO_HALF_KL:         131       2
    ZERO_HALF_R:      81'630  62'185
   ZERO_HALF_RB:          21       1
  ZERO_HALF_RBP:          20      12

LNS stats       Improv/Calls  Closed  Difficulty  TimeLimit
  'rins/rens':   11220/11220     50%    7.45e-01       0.10

LS stats                                    Batches  Restarts/Perturbs    LinMoves   GenMoves  CompoundMoves  Bactracks  WeightUpdates  ScoreComputed
                             'fj_restart':      624                143  16'779'281          0              0          0     16'415'494     14'092'368
                    'fj_restart_compound':      437                114           0  4'440'232        277'365  2'081'217         10'468     75'138'499
                'fj_restart_compound_obj':      496                129           0  5'037'511        300'506  2'368'287         12'619     85'327'164
            'fj_restart_compound_perturb':      356                116           0  3'603'366        234'148  1'684'420          8'537     61'140'824
        'fj_restart_compound_perturb_obj':      394                121           0  3'972'666        263'174  1'854'505          9'238     67'660'498
                       'fj_restart_decay':      529                118  14'861'242          0              0          0        685'317      5'203'165
              'fj_restart_decay_compound':      649                121           0  7'394'777      1'224'227  3'085'020          8'231    112'713'639
          'fj_restart_decay_compound_obj':      330                126           0  3'484'576        579'715  1'452'138          4'231     56'837'864
      'fj_restart_decay_compound_perturb':      585                122           0  6'583'472      1'080'538  2'751'191          7'420    101'515'226
  'fj_restart_decay_compound_perturb_obj':      506                113           0  5'651'621        928'437  2'361'351          6'431     87'758'129
                   'fj_restart_decay_obj':    1'302                129  36'580'191          0              0          0      1'686'524     12'844'267
               'fj_restart_decay_perturb':      651                135  18'271'368          0              0          0        843'013      6'405'607
           'fj_restart_decay_perturb_obj':      493                126  13'834'237          0              0          0        639'278      4'847'716
                         'fj_restart_obj':      454                108  12'682'635          0              0          0     11'825'872      9'754'447
                     'fj_restart_perturb':      556                116  14'677'441          0              0          0     14'181'381     12'465'248
                 'fj_restart_perturb_obj':      602                135  16'680'924          0              0          0     16'040'170     12'993'770

Solution repositories    Added  Queried  Synchro
    'alternative_path':      0        0        0
      'best_solutions':      0        0        0
   'fj solution hints':  1'964        0    1'964
        'lp solutions':  1'318   11'226    1'315
                'pump':      0        0

Improving bounds shared    Num  Sym
            'default_lp':    3    0

Clauses shared    #Exported  #Imported  #BinaryRead  #BinaryTotal
   'default_lp':      2'107     52'558          333           333
       'max_lp':      2'194     52'133          332           333
        'no_lp':     51'728      4'272          333           333

LRAT_status: NA
CpSolverResponse summary:
status: UNKNOWN
objective: NA
best_bound: NA
integers: 341
booleans: 465
conflicts: 225183
branches: 8928953
propagations: 80739397
integer_propagations: 102308600
restarts: 1378
lp_iterations: 30435209
walltime: 2500.03
usertime: 2500.03
deterministic_time: 12508.4
gap_integral: 0

{
  "board_size": 22,
  "parity_proved": 0,
  "target": 34,
  "child_id": 1432,
  "child_count": 2640,
  "partition": "unknown_pair_x_diag_plus_twos_x_diag_minus_twos",
  "build_seconds": 0.07794594764709473,
  "workers": 4,
  "requested_seed": 2026073532,
  "effective_seed": 2026073532,
  "main_diagonal_pair": [
    3,
    13
  ],
  "pair_index": 66,
  "diag_plus_twos": 16,
  "diag_minus_twos": 16,
  "pair_excess": 22,
  "residual_certificate_slack": 90,
  "analytic_minimum_line_defect": 24,
  "analytic_defect_details": {
    "row_costs": {
      "12": 6,
      "13": 3,
      "14": 0,
      "15": 0,
      "16": 0,
      "17": 0
    },
    "column_costs": {
      "12": 6,
      "13": 3,
      "14": 0,
      "15": 0,
      "16": 0,
      "17": 0
    },
    "plus_cost": 24,
    "minus_cost": 0,
    "row_column_minimum": 0
  },
  "maximal_line_constraints": 2455,
  "analytic_infeasible": false,
  "allowed_points": 242,
  "status": "UNKNOWN",
  "proof_method": "cp_sat_all_lines_with_certificate_profile_cuts",
  "elapsed_seconds": 2500.0319197177887,
  "branches": 8928953,
  "conflicts": 225183
}
